
Gurobi 9.0.1 (linux64) logging started Thu Apr 30 05:57:50 2020

Gurobi Optimizer version 9.0.1 build v9.0.1rc0 (linux64)
Optimize a model with 980 rows, 990 columns and 7152 nonzeros
Model fingerprint: 0x078825ed
Variable types: 0 continuous, 990 integer (980 binary)
Coefficient statistics:
  Matrix range     [1e+00, 5e+00]
  Objective range  [1e+00, 1e+02]
  Bounds range     [1e+00, 1e+00]
  RHS range        [1e+00, 1e+00]

User MIP start produced solution with objective 568 (0.00s)
Loaded user MIP start with objective 568

Presolve removed 442 rows and 468 columns
Presolve time: 0.06s
Presolved: 538 rows, 522 columns, 4086 nonzeros
Variable types: 0 continuous, 522 integer (522 binary)

Root relaxation: objective 4.080833e+02, 292 iterations, 0.01 seconds

    Nodes    |    Current Node    |     Objective Bounds      |     Work
 Expl Unexpl |  Obj  Depth IntInf | Incumbent    BestBd   Gap | It/Node Time

     0     0  408.08333    0  120  568.00000  408.08333  28.2%     -    0s
     0     0  416.31137    0  160  568.00000  416.31137  26.7%     -    0s
     0     0  417.16199    0  153  568.00000  417.16199  26.6%     -    0s
     0     0  417.16292    0  154  568.00000  417.16292  26.6%     -    0s
     0     0  420.51036    0  174  568.00000  420.51036  26.0%     -    0s
     0     0  420.92970    0  174  568.00000  420.92970  25.9%     -    0s
     0     0  424.32135    0  175  568.00000  424.32135  25.3%     -    0s
     0     0  424.69353    0  181  568.00000  424.69353  25.2%     -    0s
     0     0  427.43370    0  179  568.00000  427.43370  24.7%     -    0s
     0     0  428.24886    0  177  568.00000  428.24886  24.6%     -    0s
     0     0  428.42216    0  175  568.00000  428.42216  24.6%     -    0s
     0     0  428.51763    0  178  568.00000  428.51763  24.6%     -    0s
     0     0  429.30986    0  180  568.00000  429.30986  24.4%     -    0s
     0     0  429.41425    0  185  568.00000  429.41425  24.4%     -    0s
     0     0  429.42233    0  190  568.00000  429.42233  24.4%     -    0s
     0     0  429.75893    0  185  568.00000  429.75893  24.3%     -    0s
     0     0  429.79617    0  186  568.00000  429.79617  24.3%     -    0s
     0     0  429.81930    0  184  568.00000  429.81930  24.3%     -    0s
     0     0  429.81930    0  185  568.00000  429.81930  24.3%     -    0s
     0     0  430.37518    0  196  568.00000  430.37518  24.2%     -    0s
     0     0  430.40555    0  197  568.00000  430.40555  24.2%     -    0s
     0     0  430.40843    0  196  568.00000  430.40843  24.2%     -    0s
     0     0  430.50680    0  191  568.00000  430.50680  24.2%     -    0s
     0     0  430.50680    0  186  568.00000  430.50680  24.2%     -    0s
     0     0  430.63052    0  131  568.00000  430.63052  24.2%     -    0s
H    0     0                     565.0000000  430.63052  23.8%     -    0s
     0     0  430.63052    0  171  565.00000  430.63052  23.8%     -    1s
     0     0  430.63052    0  175  565.00000  430.63052  23.8%     -    1s
     0     0  430.63052    0  188  565.00000  430.63052  23.8%     -    1s
     0     0  430.63052    0  184  565.00000  430.63052  23.8%     -    1s
     0     0  430.67628    0  182  565.00000  430.67628  23.8%     -    1s
     0     0  430.70551    0  181  565.00000  430.70551  23.8%     -    1s
     0     0  430.71580    0  185  565.00000  430.71580  23.8%     -    1s
     0     0  430.75097    0  190  565.00000  430.75097  23.8%     -    1s
     0     0  430.75097    0  190  565.00000  430.75097  23.8%     -    1s
     0     0  433.59198    0  185  565.00000  433.59198  23.3%     -    1s
     0     0  433.89674    0  186  565.00000  433.89674  23.2%     -    1s
     0     0  434.04314    0  185  565.00000  434.04314  23.2%     -    1s
     0     0  434.17538    0  189  565.00000  434.17538  23.2%     -    1s
     0     0  434.19931    0  195  565.00000  434.19931  23.2%     -    1s
     0     0  434.20294    0  193  565.00000  434.20294  23.1%     -    1s
     0     0  436.64201    0  187  565.00000  436.64201  22.7%     -    1s
     0     0  436.69196    0  190  565.00000  436.69196  22.7%     -    1s
     0     0  436.71081    0  195  565.00000  436.71081  22.7%     -    1s
     0     0  437.16315    0  190  565.00000  437.16315  22.6%     -    1s
     0     0  437.24176    0  196  565.00000  437.24176  22.6%     -    1s
     0     0  437.25609    0  196  565.00000  437.25609  22.6%     -    1s
     0     0  437.34465    0  197  565.00000  437.34465  22.6%     -    1s
     0     0  437.34465    0  197  565.00000  437.34465  22.6%     -    1s
H    0     0                     511.0000000  437.34465  14.4%     -    1s
     0     2  437.45565    0  197  511.00000  437.45565  14.4%     -    1s
*    9     9               5     489.0000000  445.25980  8.94%   161    1s
*   28    19              17     484.0000000  445.25980  8.00%  97.0    1s
*   46    23               9     483.0000000  445.39951  7.78%  75.4    2s
*   78    19               3     478.0000000  453.28118  5.17%  59.3    2s

Cutting planes:
  Gomory: 2
  Cover: 1
  MIR: 11
  Zero half: 23
  Mod-K: 1
  RLT: 36

Explored 128 nodes (8646 simplex iterations) in 2.18 seconds
Thread count was 1 (of 40 available processors)

Solution count 7: 478 483 484 ... 568

Optimal solution found (tolerance 1.00e-04)
Best objective 4.780000000000e+02, best bound 4.780000000000e+02, gap 0.0000%

User-callback calls 1070, time in user-callback 0.00 sec
